
Gurobi 7.0.2 (linux64, Python) logging started Sat Mar 11 18:56:56 2017


Gurobi 7.0.2 (linux64, Python) logging started Sat Mar 11 20:34:30 2017


Gurobi 7.0.2 (linux64, Python) logging started Sat Mar 11 20:41:38 2017


Gurobi 7.0.2 (linux64, Python) logging started Sat Mar 11 21:03:26 2017


Gurobi 7.0.2 (linux64, Python) logging started Sat Mar 11 21:04:11 2017


Gurobi 7.0.2 (linux64, Python) logging started Sat Mar 11 21:43:22 2017


Gurobi 7.0.2 (linux64, Python) logging started Sun Mar 12 00:03:54 2017


Gurobi 7.0.2 (linux64, Python) logging started Sun Mar 12 01:12:27 2017


Gurobi 7.0.2 (linux64, Python) logging started Sun Mar 12 01:57:50 2017


Gurobi 7.0.2 (linux64, Python) logging started Tue Mar 21 09:03:13 2017

